p cnf 155 525
c p weight 62 -1 0
c p weight -62 1 0
c p weight 64 6.12323399573676603586882014729198302312846062338790031898128063403419218957424163818359375E-17 0
c p weight -64 1 0
c p weight 65 1 0
c p weight -65 1 0
c p weight 66 -1 0
c p weight -66 1 0
c p weight 68 -1 0
c p weight -68 1 0
c p weight 71 -1 0
c p weight -71 1 0
c p weight 74 -1 0
c p weight -74 1 0
c p weight 77 -1 0
c p weight -77 1 0
c p weight 80 -1 0
c p weight -80 1 0
c p weight 83 -1 0
c p weight -83 1 0
c p weight 86 -1 0
c p weight -86 1 0
c p weight 89 -1 0
c p weight -89 1 0
c p weight 92 -1 0
c p weight -92 1 0
c p weight 95 -1 0
c p weight -95 1 0
c p weight 98 -1 0
c p weight -98 1 0
c p weight 101 -1 0
c p weight -101 1 0
c p weight 104 -1 0
c p weight -104 1 0
c p weight 107 -1 0
c p weight -107 1 0
c p weight 110 -1 0
c p weight -110 1 0
c p weight 113 -1 0
c p weight -113 1 0
c p weight 116 -1 0
c p weight -116 1 0
c p weight 119 -1 0
c p weight -119 1 0
c p weight 122 -1 0
c p weight -122 1 0
c p weight 125 -1 0
c p weight -125 1 0
c p weight 128 -1 0
c p weight -128 1 0
c p weight 131 -1 0
c p weight -131 1 0
c p weight 134 -1 0
c p weight -134 1 0
c p weight 137 -1 0
c p weight -137 1 0
c p weight 140 -1 0
c p weight -140 1 0
c p weight 143 -1 0
c p weight -143 1 0
c p weight 146 -1 0
c p weight -146 1 0
c p weight 149 -1 0
c p weight -149 1 0
c p weight 152 -1 0
c p weight -152 1 0
c p weight 155 -1 0
c p weight -155 1 0
-59 0
-57 0
-55 0
-53 0
-51 0
-49 0
-47 0
-45 0
-43 0
-41 0
-39 0
-37 0
-35 0
-33 0
-31 0
-29 0
-27 0
-25 0
-23 0
-21 0
-19 0
-17 0
-15 0
-13 0
-11 0
-9 0
-7 0
-5 0
-3 0
-1 0
61 59 -60 0
61 -59 60 0
-61 59 60 0
-61 -59 -60 0
-62 59 0
-62 60 0
62 -59 -60 0
63 -59 61 0
-63 59 61 0
-64 61 0
63 -64 -59 0
-63 -64 59 0
63 64 59 -61 0
-63 64 -59 -61 0
-65 61 0
63 -65 59 0
-63 -65 -59 0
63 65 -59 -61 0
-63 65 59 -61 0
-66 63 0
-66 61 0
-66 -59 0
66 -63 59 -61 0
67 63 -61 0
67 -63 61 0
-67 63 61 0
-67 -63 -61 0
-68 63 0
-68 61 0
68 -63 -61 0
69 63 -57 0
69 -63 57 0
-69 63 57 0
-69 -63 -57 0
70 67 -58 0
70 -67 58 0
-70 67 58 0
-70 -67 -58 0
-71 63 0
-71 58 0
-71 57 -67 0
-71 -57 67 0
71 -63 57 67 -58 0
71 -63 -57 -67 -58 0
72 69 -55 0
72 -69 55 0
-72 69 55 0
-72 -69 -55 0
73 58 -56 0
73 -58 56 0
-73 58 56 0
-73 -58 -56 0
-74 69 0
-74 56 0
-74 55 -58 0
-74 -55 58 0
74 -69 55 58 -56 0
74 -69 -55 -58 -56 0
75 72 -53 0
75 -72 53 0
-75 72 53 0
-75 -72 -53 0
76 56 -54 0
76 -56 54 0
-76 56 54 0
-76 -56 -54 0
-77 72 0
-77 54 0
-77 53 -56 0
-77 -53 56 0
77 -72 53 56 -54 0
77 -72 -53 -56 -54 0
78 75 -51 0
78 -75 51 0
-78 75 51 0
-78 -75 -51 0
79 54 -52 0
79 -54 52 0
-79 54 52 0
-79 -54 -52 0
-80 75 0
-80 52 0
-80 51 -54 0
-80 -51 54 0
80 -75 51 54 -52 0
80 -75 -51 -54 -52 0
81 78 -49 0
81 -78 49 0
-81 78 49 0
-81 -78 -49 0
82 52 -50 0
82 -52 50 0
-82 52 50 0
-82 -52 -50 0
-83 78 0
-83 50 0
-83 49 -52 0
-83 -49 52 0
83 -78 49 52 -50 0
83 -78 -49 -52 -50 0
84 81 -47 0
84 -81 47 0
-84 81 47 0
-84 -81 -47 0
85 50 -48 0
85 -50 48 0
-85 50 48 0
-85 -50 -48 0
-86 81 0
-86 48 0
-86 47 -50 0
-86 -47 50 0
86 -81 47 50 -48 0
86 -81 -47 -50 -48 0
87 84 -45 0
87 -84 45 0
-87 84 45 0
-87 -84 -45 0
88 48 -46 0
88 -48 46 0
-88 48 46 0
-88 -48 -46 0
-89 84 0
-89 46 0
-89 45 -48 0
-89 -45 48 0
89 -84 45 48 -46 0
89 -84 -45 -48 -46 0
90 87 -43 0
90 -87 43 0
-90 87 43 0
-90 -87 -43 0
91 46 -44 0
91 -46 44 0
-91 46 44 0
-91 -46 -44 0
-92 87 0
-92 44 0
-92 43 -46 0
-92 -43 46 0
92 -87 43 46 -44 0
92 -87 -43 -46 -44 0
93 90 -41 0
93 -90 41 0
-93 90 41 0
-93 -90 -41 0
94 44 -42 0
94 -44 42 0
-94 44 42 0
-94 -44 -42 0
-95 90 0
-95 42 0
-95 41 -44 0
-95 -41 44 0
95 -90 41 44 -42 0
95 -90 -41 -44 -42 0
96 93 -39 0
96 -93 39 0
-96 93 39 0
-96 -93 -39 0
97 42 -40 0
97 -42 40 0
-97 42 40 0
-97 -42 -40 0
-98 93 0
-98 40 0
-98 39 -42 0
-98 -39 42 0
98 -93 39 42 -40 0
98 -93 -39 -42 -40 0
99 96 -37 0
99 -96 37 0
-99 96 37 0
-99 -96 -37 0
100 40 -38 0
100 -40 38 0
-100 40 38 0
-100 -40 -38 0
-101 96 0
-101 38 0
-101 37 -40 0
-101 -37 40 0
101 -96 37 40 -38 0
101 -96 -37 -40 -38 0
102 99 -35 0
102 -99 35 0
-102 99 35 0
-102 -99 -35 0
103 38 -36 0
103 -38 36 0
-103 38 36 0
-103 -38 -36 0
-104 99 0
-104 36 0
-104 35 -38 0
-104 -35 38 0
104 -99 35 38 -36 0
104 -99 -35 -38 -36 0
105 102 -33 0
105 -102 33 0
-105 102 33 0
-105 -102 -33 0
106 36 -34 0
106 -36 34 0
-106 36 34 0
-106 -36 -34 0
-107 102 0
-107 34 0
-107 33 -36 0
-107 -33 36 0
107 -102 33 36 -34 0
107 -102 -33 -36 -34 0
108 105 -31 0
108 -105 31 0
-108 105 31 0
-108 -105 -31 0
109 34 -32 0
109 -34 32 0
-109 34 32 0
-109 -34 -32 0
-110 105 0
-110 32 0
-110 31 -34 0
-110 -31 34 0
110 -105 31 34 -32 0
110 -105 -31 -34 -32 0
111 108 -29 0
111 -108 29 0
-111 108 29 0
-111 -108 -29 0
112 32 -30 0
112 -32 30 0
-112 32 30 0
-112 -32 -30 0
-113 108 0
-113 30 0
-113 29 -32 0
-113 -29 32 0
113 -108 29 32 -30 0
113 -108 -29 -32 -30 0
114 111 -27 0
114 -111 27 0
-114 111 27 0
-114 -111 -27 0
115 30 -28 0
115 -30 28 0
-115 30 28 0
-115 -30 -28 0
-116 111 0
-116 28 0
-116 27 -30 0
-116 -27 30 0
116 -111 27 30 -28 0
116 -111 -27 -30 -28 0
117 114 -25 0
117 -114 25 0
-117 114 25 0
-117 -114 -25 0
118 28 -26 0
118 -28 26 0
-118 28 26 0
-118 -28 -26 0
-119 114 0
-119 26 0
-119 25 -28 0
-119 -25 28 0
119 -114 25 28 -26 0
119 -114 -25 -28 -26 0
120 117 -23 0
120 -117 23 0
-120 117 23 0
-120 -117 -23 0
121 26 -24 0
121 -26 24 0
-121 26 24 0
-121 -26 -24 0
-122 117 0
-122 24 0
-122 23 -26 0
-122 -23 26 0
122 -117 23 26 -24 0
122 -117 -23 -26 -24 0
123 120 -21 0
123 -120 21 0
-123 120 21 0
-123 -120 -21 0
124 24 -22 0
124 -24 22 0
-124 24 22 0
-124 -24 -22 0
-125 120 0
-125 22 0
-125 21 -24 0
-125 -21 24 0
125 -120 21 24 -22 0
125 -120 -21 -24 -22 0
126 123 -19 0
126 -123 19 0
-126 123 19 0
-126 -123 -19 0
127 22 -20 0
127 -22 20 0
-127 22 20 0
-127 -22 -20 0
-128 123 0
-128 20 0
-128 19 -22 0
-128 -19 22 0
128 -123 19 22 -20 0
128 -123 -19 -22 -20 0
129 126 -17 0
129 -126 17 0
-129 126 17 0
-129 -126 -17 0
130 20 -18 0
130 -20 18 0
-130 20 18 0
-130 -20 -18 0
-131 126 0
-131 18 0
-131 17 -20 0
-131 -17 20 0
131 -126 17 20 -18 0
131 -126 -17 -20 -18 0
132 129 -15 0
132 -129 15 0
-132 129 15 0
-132 -129 -15 0
133 18 -16 0
133 -18 16 0
-133 18 16 0
-133 -18 -16 0
-134 129 0
-134 16 0
-134 15 -18 0
-134 -15 18 0
134 -129 15 18 -16 0
134 -129 -15 -18 -16 0
135 132 -13 0
135 -132 13 0
-135 132 13 0
-135 -132 -13 0
136 16 -14 0
136 -16 14 0
-136 16 14 0
-136 -16 -14 0
-137 132 0
-137 14 0
-137 13 -16 0
-137 -13 16 0
137 -132 13 16 -14 0
137 -132 -13 -16 -14 0
138 135 -11 0
138 -135 11 0
-138 135 11 0
-138 -135 -11 0
139 14 -12 0
139 -14 12 0
-139 14 12 0
-139 -14 -12 0
-140 135 0
-140 12 0
-140 11 -14 0
-140 -11 14 0
140 -135 11 14 -12 0
140 -135 -11 -14 -12 0
141 138 -9 0
141 -138 9 0
-141 138 9 0
-141 -138 -9 0
142 12 -10 0
142 -12 10 0
-142 12 10 0
-142 -12 -10 0
-143 138 0
-143 10 0
-143 9 -12 0
-143 -9 12 0
143 -138 9 12 -10 0
143 -138 -9 -12 -10 0
144 141 -7 0
144 -141 7 0
-144 141 7 0
-144 -141 -7 0
145 10 -8 0
145 -10 8 0
-145 10 8 0
-145 -10 -8 0
-146 141 0
-146 8 0
-146 7 -10 0
-146 -7 10 0
146 -141 7 10 -8 0
146 -141 -7 -10 -8 0
147 144 -5 0
147 -144 5 0
-147 144 5 0
-147 -144 -5 0
148 8 -6 0
148 -8 6 0
-148 8 6 0
-148 -8 -6 0
-149 144 0
-149 6 0
-149 5 -8 0
-149 -5 8 0
149 -144 5 8 -6 0
149 -144 -5 -8 -6 0
150 147 -3 0
150 -147 3 0
-150 147 3 0
-150 -147 -3 0
151 6 -4 0
151 -6 4 0
-151 6 4 0
-151 -6 -4 0
-152 147 0
-152 4 0
-152 3 -6 0
-152 -3 6 0
152 -147 3 6 -4 0
152 -147 -3 -6 -4 0
153 150 -1 0
153 -150 1 0
-153 150 1 0
-153 -150 -1 0
154 4 -2 0
154 -4 2 0
-154 4 2 0
-154 -4 -2 0
-155 150 0
-155 2 0
-155 1 -4 0
-155 -1 4 0
155 -150 1 4 -2 0
155 -150 -1 -4 -2 0
-153 0
-150 0
-154 0
-147 0
-151 0
-144 0
-148 0
-141 0
-145 0
-138 0
-142 0
-135 0
-139 0
-132 0
-136 0
-129 0
-133 0
-126 0
-130 0
-123 0
-127 0
-120 0
-124 0
-117 0
-121 0
-114 0
-118 0
-111 0
-115 0
-108 0
-112 0
-105 0
-109 0
-102 0
-106 0
-99 0
-103 0
-96 0
-100 0
-93 0
-97 0
-90 0
-94 0
-87 0
-91 0
-84 0
-88 0
-81 0
-85 0
-78 0
-82 0
-75 0
-79 0
-72 0
-76 0
-69 0
-73 0
-63 0
-70 0
